NAME : single
TYPE : ATSP
DIMENSION : 11
EDGE_WEIGHT_TYPE : EXPLICIT
EDGE_WEIGHT_FORMAT : FULL_MATRIX
EDGE_WEIGHT_SECTION
0 50381 50387 50378 50389 50384 50416 50445 50450 50413 50422 
0 0 124 241 372 305 137 251 316 465 50000 
0 124 0 286 324 305 113 238 300 430 635 
0 241 286 0 270 287 50000 517 570 696 50000 
0 372 324 270 0 42 382 530 581 710 50000 
0 305 305 287 42 0 386 561 611 762 984 
0 137 113 50000 382 386 0 170 225 433 647 
0 251 238 517 530 561 170 0 61 215 467 
0 316 300 570 581 611 225 61 0 161 381 
0 465 430 696 710 762 433 215 161 0 221 
0 50000 635 50000 50000 984 647 467 381 221 0 
EOF